p cnf 555 1885
c p weight 222 -1 0
c p weight -222 1 0
c p weight 224 6.12323399573676603586882014729198302312846062338790031898128063403419218957424163818359375E-17 0
c p weight -224 1 0
c p weight 225 1 0
c p weight -225 1 0
c p weight 226 -1 0
c p weight -226 1 0
c p weight 228 -1 0
c p weight -228 1 0
c p weight 231 -1 0
c p weight -231 1 0
c p weight 234 -1 0
c p weight -234 1 0
c p weight 237 -1 0
c p weight -237 1 0
c p weight 240 -1 0
c p weight -240 1 0
c p weight 243 -1 0
c p weight -243 1 0
c p weight 246 -1 0
c p weight -246 1 0
c p weight 249 -1 0
c p weight -249 1 0
c p weight 252 -1 0
c p weight -252 1 0
c p weight 255 -1 0
c p weight -255 1 0
c p weight 258 -1 0
c p weight -258 1 0
c p weight 261 -1 0
c p weight -261 1 0
c p weight 264 -1 0
c p weight -264 1 0
c p weight 267 -1 0
c p weight -267 1 0
c p weight 270 -1 0
c p weight -270 1 0
c p weight 273 -1 0
c p weight -273 1 0
c p weight 276 -1 0
c p weight -276 1 0
c p weight 279 -1 0
c p weight -279 1 0
c p weight 282 -1 0
c p weight -282 1 0
c p weight 285 -1 0
c p weight -285 1 0
c p weight 288 -1 0
c p weight -288 1 0
c p weight 291 -1 0
c p weight -291 1 0
c p weight 294 -1 0
c p weight -294 1 0
c p weight 297 -1 0
c p weight -297 1 0
c p weight 300 -1 0
c p weight -300 1 0
c p weight 303 -1 0
c p weight -303 1 0
c p weight 306 -1 0
c p weight -306 1 0
c p weight 309 -1 0
c p weight -309 1 0
c p weight 312 -1 0
c p weight -312 1 0
c p weight 315 -1 0
c p weight -315 1 0
c p weight 318 -1 0
c p weight -318 1 0
c p weight 321 -1 0
c p weight -321 1 0
c p weight 324 -1 0
c p weight -324 1 0
c p weight 327 -1 0
c p weight -327 1 0
c p weight 330 -1 0
c p weight -330 1 0
c p weight 333 -1 0
c p weight -333 1 0
c p weight 336 -1 0
c p weight -336 1 0
c p weight 339 -1 0
c p weight -339 1 0
c p weight 342 -1 0
c p weight -342 1 0
c p weight 345 -1 0
c p weight -345 1 0
c p weight 348 -1 0
c p weight -348 1 0
c p weight 351 -1 0
c p weight -351 1 0
c p weight 354 -1 0
c p weight -354 1 0
c p weight 357 -1 0
c p weight -357 1 0
c p weight 360 -1 0
c p weight -360 1 0
c p weight 363 -1 0
c p weight -363 1 0
c p weight 366 -1 0
c p weight -366 1 0
c p weight 369 -1 0
c p weight -369 1 0
c p weight 372 -1 0
c p weight -372 1 0
c p weight 375 -1 0
c p weight -375 1 0
c p weight 378 -1 0
c p weight -378 1 0
c p weight 381 -1 0
c p weight -381 1 0
c p weight 384 -1 0
c p weight -384 1 0
c p weight 387 -1 0
c p weight -387 1 0
c p weight 390 -1 0
c p weight -390 1 0
c p weight 393 -1 0
c p weight -393 1 0
c p weight 396 -1 0
c p weight -396 1 0
c p weight 399 -1 0
c p weight -399 1 0
c p weight 402 -1 0
c p weight -402 1 0
c p weight 405 -1 0
c p weight -405 1 0
c p weight 408 -1 0
c p weight -408 1 0
c p weight 411 -1 0
c p weight -411 1 0
c p weight 414 -1 0
c p weight -414 1 0
c p weight 417 -1 0
c p weight -417 1 0
c p weight 420 -1 0
c p weight -420 1 0
c p weight 423 -1 0
c p weight -423 1 0
c p weight 426 -1 0
c p weight -426 1 0
c p weight 429 -1 0
c p weight -429 1 0
c p weight 432 -1 0
c p weight -432 1 0
c p weight 435 -1 0
c p weight -435 1 0
c p weight 438 -1 0
c p weight -438 1 0
c p weight 441 -1 0
c p weight -441 1 0
c p weight 444 -1 0
c p weight -444 1 0
c p weight 447 -1 0
c p weight -447 1 0
c p weight 450 -1 0
c p weight -450 1 0
c p weight 453 -1 0
c p weight -453 1 0
c p weight 456 -1 0
c p weight -456 1 0
c p weight 459 -1 0
c p weight -459 1 0
c p weight 462 -1 0
c p weight -462 1 0
c p weight 465 -1 0
c p weight -465 1 0
c p weight 468 -1 0
c p weight -468 1 0
c p weight 471 -1 0
c p weight -471 1 0
c p weight 474 -1 0
c p weight -474 1 0
c p weight 477 -1 0
c p weight -477 1 0
c p weight 480 -1 0
c p weight -480 1 0
c p weight 483 -1 0
c p weight -483 1 0
c p weight 486 -1 0
c p weight -486 1 0
c p weight 489 -1 0
c p weight -489 1 0
c p weight 492 -1 0
c p weight -492 1 0
c p weight 495 -1 0
c p weight -495 1 0
c p weight 498 -1 0
c p weight -498 1 0
c p weight 501 -1 0
c p weight -501 1 0
c p weight 504 -1 0
c p weight -504 1 0
c p weight 507 -1 0
c p weight -507 1 0
c p weight 510 -1 0
c p weight -510 1 0
c p weight 513 -1 0
c p weight -513 1 0
c p weight 516 -1 0
c p weight -516 1 0
c p weight 519 -1 0
c p weight -519 1 0
c p weight 522 -1 0
c p weight -522 1 0
c p weight 525 -1 0
c p weight -525 1 0
c p weight 528 -1 0
c p weight -528 1 0
c p weight 531 -1 0
c p weight -531 1 0
c p weight 534 -1 0
c p weight -534 1 0
c p weight 537 -1 0
c p weight -537 1 0
c p weight 540 -1 0
c p weight -540 1 0
c p weight 543 -1 0
c p weight -543 1 0
c p weight 546 -1 0
c p weight -546 1 0
c p weight 549 -1 0
c p weight -549 1 0
c p weight 552 -1 0
c p weight -552 1 0
c p weight 555 -1 0
c p weight -555 1 0
-219 0
-217 0
-215 0
-213 0
-211 0
-209 0
-207 0
-205 0
-203 0
-201 0
-199 0
-197 0
-195 0
-193 0
-191 0
-189 0
-187 0
-185 0
-183 0
-181 0
-179 0
-177 0
-175 0
-173 0
-171 0
-169 0
-167 0
-165 0
-163 0
-161 0
-159 0
-157 0
-155 0
-153 0
-151 0
-149 0
-147 0
-145 0
-143 0
-141 0
-139 0
-137 0
-135 0
-133 0
-131 0
-129 0
-127 0
-125 0
-123 0
-121 0
-119 0
-117 0
-115 0
-113 0
-111 0
-109 0
-107 0
-105 0
-103 0
-101 0
-99 0
-97 0
-95 0
-93 0
-91 0
-89 0
-87 0
-85 0
-83 0
-81 0
-79 0
-77 0
-75 0
-73 0
-71 0
-69 0
-67 0
-65 0
-63 0
-61 0
-59 0
-57 0
-55 0
-53 0
-51 0
-49 0
-47 0
-45 0
-43 0
-41 0
-39 0
-37 0
-35 0
-33 0
-31 0
-29 0
-27 0
-25 0
-23 0
-21 0
-19 0
-17 0
-15 0
-13 0
-11 0
-9 0
-7 0
-5 0
-3 0
-1 0
221 219 -220 0
221 -219 220 0
-221 219 220 0
-221 -219 -220 0
-222 219 0
-222 220 0
222 -219 -220 0
223 -219 221 0
-223 219 221 0
-224 221 0
223 -224 -219 0
-223 -224 219 0
223 224 219 -221 0
-223 224 -219 -221 0
-225 221 0
223 -225 219 0
-223 -225 -219 0
223 225 -219 -221 0
-223 225 219 -221 0
-226 223 0
-226 221 0
-226 -219 0
226 -223 219 -221 0
227 223 -221 0
227 -223 221 0
-227 223 221 0
-227 -223 -221 0
-228 223 0
-228 221 0
228 -223 -221 0
229 223 -217 0
229 -223 217 0
-229 223 217 0
-229 -223 -217 0
230 227 -218 0
230 -227 218 0
-230 227 218 0
-230 -227 -218 0
-231 223 0
-231 218 0
-231 217 -227 0
-231 -217 227 0
231 -223 217 227 -218 0
231 -223 -217 -227 -218 0
232 229 -215 0
232 -229 215 0
-232 229 215 0
-232 -229 -215 0
233 218 -216 0
233 -218 216 0
-233 218 216 0
-233 -218 -216 0
-234 229 0
-234 216 0
-234 215 -218 0
-234 -215 218 0
234 -229 215 218 -216 0
234 -229 -215 -218 -216 0
235 232 -213 0
235 -232 213 0
-235 232 213 0
-235 -232 -213 0
236 216 -214 0
236 -216 214 0
-236 216 214 0
-236 -216 -214 0
-237 232 0
-237 214 0
-237 213 -216 0
-237 -213 216 0
237 -232 213 216 -214 0
237 -232 -213 -216 -214 0
238 235 -211 0
238 -235 211 0
-238 235 211 0
-238 -235 -211 0
239 214 -212 0
239 -214 212 0
-239 214 212 0
-239 -214 -212 0
-240 235 0
-240 212 0
-240 211 -214 0
-240 -211 214 0
240 -235 211 214 -212 0
240 -235 -211 -214 -212 0
241 238 -209 0
241 -238 209 0
-241 238 209 0
-241 -238 -209 0
242 212 -210 0
242 -212 210 0
-242 212 210 0
-242 -212 -210 0
-243 238 0
-243 210 0
-243 209 -212 0
-243 -209 212 0
243 -238 209 212 -210 0
243 -238 -209 -212 -210 0
244 241 -207 0
244 -241 207 0
-244 241 207 0
-244 -241 -207 0
245 210 -208 0
245 -210 208 0
-245 210 208 0
-245 -210 -208 0
-246 241 0
-246 208 0
-246 207 -210 0
-246 -207 210 0
246 -241 207 210 -208 0
246 -241 -207 -210 -208 0
247 244 -205 0
247 -244 205 0
-247 244 205 0
-247 -244 -205 0
248 208 -206 0
248 -208 206 0
-248 208 206 0
-248 -208 -206 0
-249 244 0
-249 206 0
-249 205 -208 0
-249 -205 208 0
249 -244 205 208 -206 0
249 -244 -205 -208 -206 0
250 247 -203 0
250 -247 203 0
-250 247 203 0
-250 -247 -203 0
251 206 -204 0
251 -206 204 0
-251 206 204 0
-251 -206 -204 0
-252 247 0
-252 204 0
-252 203 -206 0
-252 -203 206 0
252 -247 203 206 -204 0
252 -247 -203 -206 -204 0
253 250 -201 0
253 -250 201 0
-253 250 201 0
-253 -250 -201 0
254 204 -202 0
254 -204 202 0
-254 204 202 0
-254 -204 -202 0
-255 250 0
-255 202 0
-255 201 -204 0
-255 -201 204 0
255 -250 201 204 -202 0
255 -250 -201 -204 -202 0
256 253 -199 0
256 -253 199 0
-256 253 199 0
-256 -253 -199 0
257 202 -200 0
257 -202 200 0
-257 202 200 0
-257 -202 -200 0
-258 253 0
-258 200 0
-258 199 -202 0
-258 -199 202 0
258 -253 199 202 -200 0
258 -253 -199 -202 -200 0
259 256 -197 0
259 -256 197 0
-259 256 197 0
-259 -256 -197 0
260 200 -198 0
260 -200 198 0
-260 200 198 0
-260 -200 -198 0
-261 256 0
-261 198 0
-261 197 -200 0
-261 -197 200 0
261 -256 197 200 -198 0
261 -256 -197 -200 -198 0
262 259 -195 0
262 -259 195 0
-262 259 195 0
-262 -259 -195 0
263 198 -196 0
263 -198 196 0
-263 198 196 0
-263 -198 -196 0
-264 259 0
-264 196 0
-264 195 -198 0
-264 -195 198 0
264 -259 195 198 -196 0
264 -259 -195 -198 -196 0
265 262 -193 0
265 -262 193 0
-265 262 193 0
-265 -262 -193 0
266 196 -194 0
266 -196 194 0
-266 196 194 0
-266 -196 -194 0
-267 262 0
-267 194 0
-267 193 -196 0
-267 -193 196 0
267 -262 193 196 -194 0
267 -262 -193 -196 -194 0
268 265 -191 0
268 -265 191 0
-268 265 191 0
-268 -265 -191 0
269 194 -192 0
269 -194 192 0
-269 194 192 0
-269 -194 -192 0
-270 265 0
-270 192 0
-270 191 -194 0
-270 -191 194 0
270 -265 191 194 -192 0
270 -265 -191 -194 -192 0
271 268 -189 0
271 -268 189 0
-271 268 189 0
-271 -268 -189 0
272 192 -190 0
272 -192 190 0
-272 192 190 0
-272 -192 -190 0
-273 268 0
-273 190 0
-273 189 -192 0
-273 -189 192 0
273 -268 189 192 -190 0
273 -268 -189 -192 -190 0
274 271 -187 0
274 -271 187 0
-274 271 187 0
-274 -271 -187 0
275 190 -188 0
275 -190 188 0
-275 190 188 0
-275 -190 -188 0
-276 271 0
-276 188 0
-276 187 -190 0
-276 -187 190 0
276 -271 187 190 -188 0
276 -271 -187 -190 -188 0
277 274 -185 0
277 -274 185 0
-277 274 185 0
-277 -274 -185 0
278 188 -186 0
278 -188 186 0
-278 188 186 0
-278 -188 -186 0
-279 274 0
-279 186 0
-279 185 -188 0
-279 -185 188 0
279 -274 185 188 -186 0
279 -274 -185 -188 -186 0
280 277 -183 0
280 -277 183 0
-280 277 183 0
-280 -277 -183 0
281 186 -184 0
281 -186 184 0
-281 186 184 0
-281 -186 -184 0
-282 277 0
-282 184 0
-282 183 -186 0
-282 -183 186 0
282 -277 183 186 -184 0
282 -277 -183 -186 -184 0
283 280 -181 0
283 -280 181 0
-283 280 181 0
-283 -280 -181 0
284 184 -182 0
284 -184 182 0
-284 184 182 0
-284 -184 -182 0
-285 280 0
-285 182 0
-285 181 -184 0
-285 -181 184 0
285 -280 181 184 -182 0
285 -280 -181 -184 -182 0
286 283 -179 0
286 -283 179 0
-286 283 179 0
-286 -283 -179 0
287 182 -180 0
287 -182 180 0
-287 182 180 0
-287 -182 -180 0
-288 283 0
-288 180 0
-288 179 -182 0
-288 -179 182 0
288 -283 179 182 -180 0
288 -283 -179 -182 -180 0
289 286 -177 0
289 -286 177 0
-289 286 177 0
-289 -286 -177 0
290 180 -178 0
290 -180 178 0
-290 180 178 0
-290 -180 -178 0
-291 286 0
-291 178 0
-291 177 -180 0
-291 -177 180 0
291 -286 177 180 -178 0
291 -286 -177 -180 -178 0
292 289 -175 0
292 -289 175 0
-292 289 175 0
-292 -289 -175 0
293 178 -176 0
293 -178 176 0
-293 178 176 0
-293 -178 -176 0
-294 289 0
-294 176 0
-294 175 -178 0
-294 -175 178 0
294 -289 175 178 -176 0
294 -289 -175 -178 -176 0
295 292 -173 0
295 -292 173 0
-295 292 173 0
-295 -292 -173 0
296 176 -174 0
296 -176 174 0
-296 176 174 0
-296 -176 -174 0
-297 292 0
-297 174 0
-297 173 -176 0
-297 -173 176 0
297 -292 173 176 -174 0
297 -292 -173 -176 -174 0
298 295 -171 0
298 -295 171 0
-298 295 171 0
-298 -295 -171 0
299 174 -172 0
299 -174 172 0
-299 174 172 0
-299 -174 -172 0
-300 295 0
-300 172 0
-300 171 -174 0
-300 -171 174 0
300 -295 171 174 -172 0
300 -295 -171 -174 -172 0
301 298 -169 0
301 -298 169 0
-301 298 169 0
-301 -298 -169 0
302 172 -170 0
302 -172 170 0
-302 172 170 0
-302 -172 -170 0
-303 298 0
-303 170 0
-303 169 -172 0
-303 -169 172 0
303 -298 169 172 -170 0
303 -298 -169 -172 -170 0
304 301 -167 0
304 -301 167 0
-304 301 167 0
-304 -301 -167 0
305 170 -168 0
305 -170 168 0
-305 170 168 0
-305 -170 -168 0
-306 301 0
-306 168 0
-306 167 -170 0
-306 -167 170 0
306 -301 167 170 -168 0
306 -301 -167 -170 -168 0
307 304 -165 0
307 -304 165 0
-307 304 165 0
-307 -304 -165 0
308 168 -166 0
308 -168 166 0
-308 168 166 0
-308 -168 -166 0
-309 304 0
-309 166 0
-309 165 -168 0
-309 -165 168 0
309 -304 165 168 -166 0
309 -304 -165 -168 -166 0
310 307 -163 0
310 -307 163 0
-310 307 163 0
-310 -307 -163 0
311 166 -164 0
311 -166 164 0
-311 166 164 0
-311 -166 -164 0
-312 307 0
-312 164 0
-312 163 -166 0
-312 -163 166 0
312 -307 163 166 -164 0
312 -307 -163 -166 -164 0
313 310 -161 0
313 -310 161 0
-313 310 161 0
-313 -310 -161 0
314 164 -162 0
314 -164 162 0
-314 164 162 0
-314 -164 -162 0
-315 310 0
-315 162 0
-315 161 -164 0
-315 -161 164 0
315 -310 161 164 -162 0
315 -310 -161 -164 -162 0
316 313 -159 0
316 -313 159 0
-316 313 159 0
-316 -313 -159 0
317 162 -160 0
317 -162 160 0
-317 162 160 0
-317 -162 -160 0
-318 313 0
-318 160 0
-318 159 -162 0
-318 -159 162 0
318 -313 159 162 -160 0
318 -313 -159 -162 -160 0
319 316 -157 0
319 -316 157 0
-319 316 157 0
-319 -316 -157 0
320 160 -158 0
320 -160 158 0
-320 160 158 0
-320 -160 -158 0
-321 316 0
-321 158 0
-321 157 -160 0
-321 -157 160 0
321 -316 157 160 -158 0
321 -316 -157 -160 -158 0
322 319 -155 0
322 -319 155 0
-322 319 155 0
-322 -319 -155 0
323 158 -156 0
323 -158 156 0
-323 158 156 0
-323 -158 -156 0
-324 319 0
-324 156 0
-324 155 -158 0
-324 -155 158 0
324 -319 155 158 -156 0
324 -319 -155 -158 -156 0
325 322 -153 0
325 -322 153 0
-325 322 153 0
-325 -322 -153 0
326 156 -154 0
326 -156 154 0
-326 156 154 0
-326 -156 -154 0
-327 322 0
-327 154 0
-327 153 -156 0
-327 -153 156 0
327 -322 153 156 -154 0
327 -322 -153 -156 -154 0
328 325 -151 0
328 -325 151 0
-328 325 151 0
-328 -325 -151 0
329 154 -152 0
329 -154 152 0
-329 154 152 0
-329 -154 -152 0
-330 325 0
-330 152 0
-330 151 -154 0
-330 -151 154 0
330 -325 151 154 -152 0
330 -325 -151 -154 -152 0
331 328 -149 0
331 -328 149 0
-331 328 149 0
-331 -328 -149 0
332 152 -150 0
332 -152 150 0
-332 152 150 0
-332 -152 -150 0
-333 328 0
-333 150 0
-333 149 -152 0
-333 -149 152 0
333 -328 149 152 -150 0
333 -328 -149 -152 -150 0
334 331 -147 0
334 -331 147 0
-334 331 147 0
-334 -331 -147 0
335 150 -148 0
335 -150 148 0
-335 150 148 0
-335 -150 -148 0
-336 331 0
-336 148 0
-336 147 -150 0
-336 -147 150 0
336 -331 147 150 -148 0
336 -331 -147 -150 -148 0
337 334 -145 0
337 -334 145 0
-337 334 145 0
-337 -334 -145 0
338 148 -146 0
338 -148 146 0
-338 148 146 0
-338 -148 -146 0
-339 334 0
-339 146 0
-339 145 -148 0
-339 -145 148 0
339 -334 145 148 -146 0
339 -334 -145 -148 -146 0
340 337 -143 0
340 -337 143 0
-340 337 143 0
-340 -337 -143 0
341 146 -144 0
341 -146 144 0
-341 146 144 0
-341 -146 -144 0
-342 337 0
-342 144 0
-342 143 -146 0
-342 -143 146 0
342 -337 143 146 -144 0
342 -337 -143 -146 -144 0
343 340 -141 0
343 -340 141 0
-343 340 141 0
-343 -340 -141 0
344 144 -142 0
344 -144 142 0
-344 144 142 0
-344 -144 -142 0
-345 340 0
-345 142 0
-345 141 -144 0
-345 -141 144 0
345 -340 141 144 -142 0
345 -340 -141 -144 -142 0
346 343 -139 0
346 -343 139 0
-346 343 139 0
-346 -343 -139 0
347 142 -140 0
347 -142 140 0
-347 142 140 0
-347 -142 -140 0
-348 343 0
-348 140 0
-348 139 -142 0
-348 -139 142 0
348 -343 139 142 -140 0
348 -343 -139 -142 -140 0
349 346 -137 0
349 -346 137 0
-349 346 137 0
-349 -346 -137 0
350 140 -138 0
350 -140 138 0
-350 140 138 0
-350 -140 -138 0
-351 346 0
-351 138 0
-351 137 -140 0
-351 -137 140 0
351 -346 137 140 -138 0
351 -346 -137 -140 -138 0
352 349 -135 0
352 -349 135 0
-352 349 135 0
-352 -349 -135 0
353 138 -136 0
353 -138 136 0
-353 138 136 0
-353 -138 -136 0
-354 349 0
-354 136 0
-354 135 -138 0
-354 -135 138 0
354 -349 135 138 -136 0
354 -349 -135 -138 -136 0
355 352 -133 0
355 -352 133 0
-355 352 133 0
-355 -352 -133 0
356 136 -134 0
356 -136 134 0
-356 136 134 0
-356 -136 -134 0
-357 352 0
-357 134 0
-357 133 -136 0
-357 -133 136 0
357 -352 133 136 -134 0
357 -352 -133 -136 -134 0
358 355 -131 0
358 -355 131 0
-358 355 131 0
-358 -355 -131 0
359 134 -132 0
359 -134 132 0
-359 134 132 0
-359 -134 -132 0
-360 355 0
-360 132 0
-360 131 -134 0
-360 -131 134 0
360 -355 131 134 -132 0
360 -355 -131 -134 -132 0
361 358 -129 0
361 -358 129 0
-361 358 129 0
-361 -358 -129 0
362 132 -130 0
362 -132 130 0
-362 132 130 0
-362 -132 -130 0
-363 358 0
-363 130 0
-363 129 -132 0
-363 -129 132 0
363 -358 129 132 -130 0
363 -358 -129 -132 -130 0
364 361 -127 0
364 -361 127 0
-364 361 127 0
-364 -361 -127 0
365 130 -128 0
365 -130 128 0
-365 130 128 0
-365 -130 -128 0
-366 361 0
-366 128 0
-366 127 -130 0
-366 -127 130 0
366 -361 127 130 -128 0
366 -361 -127 -130 -128 0
367 364 -125 0
367 -364 125 0
-367 364 125 0
-367 -364 -125 0
368 128 -126 0
368 -128 126 0
-368 128 126 0
-368 -128 -126 0
-369 364 0
-369 126 0
-369 125 -128 0
-369 -125 128 0
369 -364 125 128 -126 0
369 -364 -125 -128 -126 0
370 367 -123 0
370 -367 123 0
-370 367 123 0
-370 -367 -123 0
371 126 -124 0
371 -126 124 0
-371 126 124 0
-371 -126 -124 0
-372 367 0
-372 124 0
-372 123 -126 0
-372 -123 126 0
372 -367 123 126 -124 0
372 -367 -123 -126 -124 0
373 370 -121 0
373 -370 121 0
-373 370 121 0
-373 -370 -121 0
374 124 -122 0
374 -124 122 0
-374 124 122 0
-374 -124 -122 0
-375 370 0
-375 122 0
-375 121 -124 0
-375 -121 124 0
375 -370 121 124 -122 0
375 -370 -121 -124 -122 0
376 373 -119 0
376 -373 119 0
-376 373 119 0
-376 -373 -119 0
377 122 -120 0
377 -122 120 0
-377 122 120 0
-377 -122 -120 0
-378 373 0
-378 120 0
-378 119 -122 0
-378 -119 122 0
378 -373 119 122 -120 0
378 -373 -119 -122 -120 0
379 376 -117 0
379 -376 117 0
-379 376 117 0
-379 -376 -117 0
380 120 -118 0
380 -120 118 0
-380 120 118 0
-380 -120 -118 0
-381 376 0
-381 118 0
-381 117 -120 0
-381 -117 120 0
381 -376 117 120 -118 0
381 -376 -117 -120 -118 0
382 379 -115 0
382 -379 115 0
-382 379 115 0
-382 -379 -115 0
383 118 -116 0
383 -118 116 0
-383 118 116 0
-383 -118 -116 0
-384 379 0
-384 116 0
-384 115 -118 0
-384 -115 118 0
384 -379 115 118 -116 0
384 -379 -115 -118 -116 0
385 382 -113 0
385 -382 113 0
-385 382 113 0
-385 -382 -113 0
386 116 -114 0
386 -116 114 0
-386 116 114 0
-386 -116 -114 0
-387 382 0
-387 114 0
-387 113 -116 0
-387 -113 116 0
387 -382 113 116 -114 0
387 -382 -113 -116 -114 0
388 385 -111 0
388 -385 111 0
-388 385 111 0
-388 -385 -111 0
389 114 -112 0
389 -114 112 0
-389 114 112 0
-389 -114 -112 0
-390 385 0
-390 112 0
-390 111 -114 0
-390 -111 114 0
390 -385 111 114 -112 0
390 -385 -111 -114 -112 0
391 388 -109 0
391 -388 109 0
-391 388 109 0
-391 -388 -109 0
392 112 -110 0
392 -112 110 0
-392 112 110 0
-392 -112 -110 0
-393 388 0
-393 110 0
-393 109 -112 0
-393 -109 112 0
393 -388 109 112 -110 0
393 -388 -109 -112 -110 0
394 391 -107 0
394 -391 107 0
-394 391 107 0
-394 -391 -107 0
395 110 -108 0
395 -110 108 0
-395 110 108 0
-395 -110 -108 0
-396 391 0
-396 108 0
-396 107 -110 0
-396 -107 110 0
396 -391 107 110 -108 0
396 -391 -107 -110 -108 0
397 394 -105 0
397 -394 105 0
-397 394 105 0
-397 -394 -105 0
398 108 -106 0
398 -108 106 0
-398 108 106 0
-398 -108 -106 0
-399 394 0
-399 106 0
-399 105 -108 0
-399 -105 108 0
399 -394 105 108 -106 0
399 -394 -105 -108 -106 0
400 397 -103 0
400 -397 103 0
-400 397 103 0
-400 -397 -103 0
401 106 -104 0
401 -106 104 0
-401 106 104 0
-401 -106 -104 0
-402 397 0
-402 104 0
-402 103 -106 0
-402 -103 106 0
402 -397 103 106 -104 0
402 -397 -103 -106 -104 0
403 400 -101 0
403 -400 101 0
-403 400 101 0
-403 -400 -101 0
404 104 -102 0
404 -104 102 0
-404 104 102 0
-404 -104 -102 0
-405 400 0
-405 102 0
-405 101 -104 0
-405 -101 104 0
405 -400 101 104 -102 0
405 -400 -101 -104 -102 0
406 403 -99 0
406 -403 99 0
-406 403 99 0
-406 -403 -99 0
407 102 -100 0
407 -102 100 0
-407 102 100 0
-407 -102 -100 0
-408 403 0
-408 100 0
-408 99 -102 0
-408 -99 102 0
408 -403 99 102 -100 0
408 -403 -99 -102 -100 0
409 406 -97 0
409 -406 97 0
-409 406 97 0
-409 -406 -97 0
410 100 -98 0
410 -100 98 0
-410 100 98 0
-410 -100 -98 0
-411 406 0
-411 98 0
-411 97 -100 0
-411 -97 100 0
411 -406 97 100 -98 0
411 -406 -97 -100 -98 0
412 409 -95 0
412 -409 95 0
-412 409 95 0
-412 -409 -95 0
413 98 -96 0
413 -98 96 0
-413 98 96 0
-413 -98 -96 0
-414 409 0
-414 96 0
-414 95 -98 0
-414 -95 98 0
414 -409 95 98 -96 0
414 -409 -95 -98 -96 0
415 412 -93 0
415 -412 93 0
-415 412 93 0
-415 -412 -93 0
416 96 -94 0
416 -96 94 0
-416 96 94 0
-416 -96 -94 0
-417 412 0
-417 94 0
-417 93 -96 0
-417 -93 96 0
417 -412 93 96 -94 0
417 -412 -93 -96 -94 0
418 415 -91 0
418 -415 91 0
-418 415 91 0
-418 -415 -91 0
419 94 -92 0
419 -94 92 0
-419 94 92 0
-419 -94 -92 0
-420 415 0
-420 92 0
-420 91 -94 0
-420 -91 94 0
420 -415 91 94 -92 0
420 -415 -91 -94 -92 0
421 418 -89 0
421 -418 89 0
-421 418 89 0
-421 -418 -89 0
422 92 -90 0
422 -92 90 0
-422 92 90 0
-422 -92 -90 0
-423 418 0
-423 90 0
-423 89 -92 0
-423 -89 92 0
423 -418 89 92 -90 0
423 -418 -89 -92 -90 0
424 421 -87 0
424 -421 87 0
-424 421 87 0
-424 -421 -87 0
425 90 -88 0
425 -90 88 0
-425 90 88 0
-425 -90 -88 0
-426 421 0
-426 88 0
-426 87 -90 0
-426 -87 90 0
426 -421 87 90 -88 0
426 -421 -87 -90 -88 0
427 424 -85 0
427 -424 85 0
-427 424 85 0
-427 -424 -85 0
428 88 -86 0
428 -88 86 0
-428 88 86 0
-428 -88 -86 0
-429 424 0
-429 86 0
-429 85 -88 0
-429 -85 88 0
429 -424 85 88 -86 0
429 -424 -85 -88 -86 0
430 427 -83 0
430 -427 83 0
-430 427 83 0
-430 -427 -83 0
431 86 -84 0
431 -86 84 0
-431 86 84 0
-431 -86 -84 0
-432 427 0
-432 84 0
-432 83 -86 0
-432 -83 86 0
432 -427 83 86 -84 0
432 -427 -83 -86 -84 0
433 430 -81 0
433 -430 81 0
-433 430 81 0
-433 -430 -81 0
434 84 -82 0
434 -84 82 0
-434 84 82 0
-434 -84 -82 0
-435 430 0
-435 82 0
-435 81 -84 0
-435 -81 84 0
435 -430 81 84 -82 0
435 -430 -81 -84 -82 0
436 433 -79 0
436 -433 79 0
-436 433 79 0
-436 -433 -79 0
437 82 -80 0
437 -82 80 0
-437 82 80 0
-437 -82 -80 0
-438 433 0
-438 80 0
-438 79 -82 0
-438 -79 82 0
438 -433 79 82 -80 0
438 -433 -79 -82 -80 0
439 436 -77 0
439 -436 77 0
-439 436 77 0
-439 -436 -77 0
440 80 -78 0
440 -80 78 0
-440 80 78 0
-440 -80 -78 0
-441 436 0
-441 78 0
-441 77 -80 0
-441 -77 80 0
441 -436 77 80 -78 0
441 -436 -77 -80 -78 0
442 439 -75 0
442 -439 75 0
-442 439 75 0
-442 -439 -75 0
443 78 -76 0
443 -78 76 0
-443 78 76 0
-443 -78 -76 0
-444 439 0
-444 76 0
-444 75 -78 0
-444 -75 78 0
444 -439 75 78 -76 0
444 -439 -75 -78 -76 0
445 442 -73 0
445 -442 73 0
-445 442 73 0
-445 -442 -73 0
446 76 -74 0
446 -76 74 0
-446 76 74 0
-446 -76 -74 0
-447 442 0
-447 74 0
-447 73 -76 0
-447 -73 76 0
447 -442 73 76 -74 0
447 -442 -73 -76 -74 0
448 445 -71 0
448 -445 71 0
-448 445 71 0
-448 -445 -71 0
449 74 -72 0
449 -74 72 0
-449 74 72 0
-449 -74 -72 0
-450 445 0
-450 72 0
-450 71 -74 0
-450 -71 74 0
450 -445 71 74 -72 0
450 -445 -71 -74 -72 0
451 448 -69 0
451 -448 69 0
-451 448 69 0
-451 -448 -69 0
452 72 -70 0
452 -72 70 0
-452 72 70 0
-452 -72 -70 0
-453 448 0
-453 70 0
-453 69 -72 0
-453 -69 72 0
453 -448 69 72 -70 0
453 -448 -69 -72 -70 0
454 451 -67 0
454 -451 67 0
-454 451 67 0
-454 -451 -67 0
455 70 -68 0
455 -70 68 0
-455 70 68 0
-455 -70 -68 0
-456 451 0
-456 68 0
-456 67 -70 0
-456 -67 70 0
456 -451 67 70 -68 0
456 -451 -67 -70 -68 0
457 454 -65 0
457 -454 65 0
-457 454 65 0
-457 -454 -65 0
458 68 -66 0
458 -68 66 0
-458 68 66 0
-458 -68 -66 0
-459 454 0
-459 66 0
-459 65 -68 0
-459 -65 68 0
459 -454 65 68 -66 0
459 -454 -65 -68 -66 0
460 457 -63 0
460 -457 63 0
-460 457 63 0
-460 -457 -63 0
461 66 -64 0
461 -66 64 0
-461 66 64 0
-461 -66 -64 0
-462 457 0
-462 64 0
-462 63 -66 0
-462 -63 66 0
462 -457 63 66 -64 0
462 -457 -63 -66 -64 0
463 460 -61 0
463 -460 61 0
-463 460 61 0
-463 -460 -61 0
464 64 -62 0
464 -64 62 0
-464 64 62 0
-464 -64 -62 0
-465 460 0
-465 62 0
-465 61 -64 0
-465 -61 64 0
465 -460 61 64 -62 0
465 -460 -61 -64 -62 0
466 463 -59 0
466 -463 59 0
-466 463 59 0
-466 -463 -59 0
467 62 -60 0
467 -62 60 0
-467 62 60 0
-467 -62 -60 0
-468 463 0
-468 60 0
-468 59 -62 0
-468 -59 62 0
468 -463 59 62 -60 0
468 -463 -59 -62 -60 0
469 466 -57 0
469 -466 57 0
-469 466 57 0
-469 -466 -57 0
470 60 -58 0
470 -60 58 0
-470 60 58 0
-470 -60 -58 0
-471 466 0
-471 58 0
-471 57 -60 0
-471 -57 60 0
471 -466 57 60 -58 0
471 -466 -57 -60 -58 0
472 469 -55 0
472 -469 55 0
-472 469 55 0
-472 -469 -55 0
473 58 -56 0
473 -58 56 0
-473 58 56 0
-473 -58 -56 0
-474 469 0
-474 56 0
-474 55 -58 0
-474 -55 58 0
474 -469 55 58 -56 0
474 -469 -55 -58 -56 0
475 472 -53 0
475 -472 53 0
-475 472 53 0
-475 -472 -53 0
476 56 -54 0
476 -56 54 0
-476 56 54 0
-476 -56 -54 0
-477 472 0
-477 54 0
-477 53 -56 0
-477 -53 56 0
477 -472 53 56 -54 0
477 -472 -53 -56 -54 0
478 475 -51 0
478 -475 51 0
-478 475 51 0
-478 -475 -51 0
479 54 -52 0
479 -54 52 0
-479 54 52 0
-479 -54 -52 0
-480 475 0
-480 52 0
-480 51 -54 0
-480 -51 54 0
480 -475 51 54 -52 0
480 -475 -51 -54 -52 0
481 478 -49 0
481 -478 49 0
-481 478 49 0
-481 -478 -49 0
482 52 -50 0
482 -52 50 0
-482 52 50 0
-482 -52 -50 0
-483 478 0
-483 50 0
-483 49 -52 0
-483 -49 52 0
483 -478 49 52 -50 0
483 -478 -49 -52 -50 0
484 481 -47 0
484 -481 47 0
-484 481 47 0
-484 -481 -47 0
485 50 -48 0
485 -50 48 0
-485 50 48 0
-485 -50 -48 0
-486 481 0
-486 48 0
-486 47 -50 0
-486 -47 50 0
486 -481 47 50 -48 0
486 -481 -47 -50 -48 0
487 484 -45 0
487 -484 45 0
-487 484 45 0
-487 -484 -45 0
488 48 -46 0
488 -48 46 0
-488 48 46 0
-488 -48 -46 0
-489 484 0
-489 46 0
-489 45 -48 0
-489 -45 48 0
489 -484 45 48 -46 0
489 -484 -45 -48 -46 0
490 487 -43 0
490 -487 43 0
-490 487 43 0
-490 -487 -43 0
491 46 -44 0
491 -46 44 0
-491 46 44 0
-491 -46 -44 0
-492 487 0
-492 44 0
-492 43 -46 0
-492 -43 46 0
492 -487 43 46 -44 0
492 -487 -43 -46 -44 0
493 490 -41 0
493 -490 41 0
-493 490 41 0
-493 -490 -41 0
494 44 -42 0
494 -44 42 0
-494 44 42 0
-494 -44 -42 0
-495 490 0
-495 42 0
-495 41 -44 0
-495 -41 44 0
495 -490 41 44 -42 0
495 -490 -41 -44 -42 0
496 493 -39 0
496 -493 39 0
-496 493 39 0
-496 -493 -39 0
497 42 -40 0
497 -42 40 0
-497 42 40 0
-497 -42 -40 0
-498 493 0
-498 40 0
-498 39 -42 0
-498 -39 42 0
498 -493 39 42 -40 0
498 -493 -39 -42 -40 0
499 496 -37 0
499 -496 37 0
-499 496 37 0
-499 -496 -37 0
500 40 -38 0
500 -40 38 0
-500 40 38 0
-500 -40 -38 0
-501 496 0
-501 38 0
-501 37 -40 0
-501 -37 40 0
501 -496 37 40 -38 0
501 -496 -37 -40 -38 0
502 499 -35 0
502 -499 35 0
-502 499 35 0
-502 -499 -35 0
503 38 -36 0
503 -38 36 0
-503 38 36 0
-503 -38 -36 0
-504 499 0
-504 36 0
-504 35 -38 0
-504 -35 38 0
504 -499 35 38 -36 0
504 -499 -35 -38 -36 0
505 502 -33 0
505 -502 33 0
-505 502 33 0
-505 -502 -33 0
506 36 -34 0
506 -36 34 0
-506 36 34 0
-506 -36 -34 0
-507 502 0
-507 34 0
-507 33 -36 0
-507 -33 36 0
507 -502 33 36 -34 0
507 -502 -33 -36 -34 0
508 505 -31 0
508 -505 31 0
-508 505 31 0
-508 -505 -31 0
509 34 -32 0
509 -34 32 0
-509 34 32 0
-509 -34 -32 0
-510 505 0
-510 32 0
-510 31 -34 0
-510 -31 34 0
510 -505 31 34 -32 0
510 -505 -31 -34 -32 0
511 508 -29 0
511 -508 29 0
-511 508 29 0
-511 -508 -29 0
512 32 -30 0
512 -32 30 0
-512 32 30 0
-512 -32 -30 0
-513 508 0
-513 30 0
-513 29 -32 0
-513 -29 32 0
513 -508 29 32 -30 0
513 -508 -29 -32 -30 0
514 511 -27 0
514 -511 27 0
-514 511 27 0
-514 -511 -27 0
515 30 -28 0
515 -30 28 0
-515 30 28 0
-515 -30 -28 0
-516 511 0
-516 28 0
-516 27 -30 0
-516 -27 30 0
516 -511 27 30 -28 0
516 -511 -27 -30 -28 0
517 514 -25 0
517 -514 25 0
-517 514 25 0
-517 -514 -25 0
518 28 -26 0
518 -28 26 0
-518 28 26 0
-518 -28 -26 0
-519 514 0
-519 26 0
-519 25 -28 0
-519 -25 28 0
519 -514 25 28 -26 0
519 -514 -25 -28 -26 0
520 517 -23 0
520 -517 23 0
-520 517 23 0
-520 -517 -23 0
521 26 -24 0
521 -26 24 0
-521 26 24 0
-521 -26 -24 0
-522 517 0
-522 24 0
-522 23 -26 0
-522 -23 26 0
522 -517 23 26 -24 0
522 -517 -23 -26 -24 0
523 520 -21 0
523 -520 21 0
-523 520 21 0
-523 -520 -21 0
524 24 -22 0
524 -24 22 0
-524 24 22 0
-524 -24 -22 0
-525 520 0
-525 22 0
-525 21 -24 0
-525 -21 24 0
525 -520 21 24 -22 0
525 -520 -21 -24 -22 0
526 523 -19 0
526 -523 19 0
-526 523 19 0
-526 -523 -19 0
527 22 -20 0
527 -22 20 0
-527 22 20 0
-527 -22 -20 0
-528 523 0
-528 20 0
-528 19 -22 0
-528 -19 22 0
528 -523 19 22 -20 0
528 -523 -19 -22 -20 0
529 526 -17 0
529 -526 17 0
-529 526 17 0
-529 -526 -17 0
530 20 -18 0
530 -20 18 0
-530 20 18 0
-530 -20 -18 0
-531 526 0
-531 18 0
-531 17 -20 0
-531 -17 20 0
531 -526 17 20 -18 0
531 -526 -17 -20 -18 0
532 529 -15 0
532 -529 15 0
-532 529 15 0
-532 -529 -15 0
533 18 -16 0
533 -18 16 0
-533 18 16 0
-533 -18 -16 0
-534 529 0
-534 16 0
-534 15 -18 0
-534 -15 18 0
534 -529 15 18 -16 0
534 -529 -15 -18 -16 0
535 532 -13 0
535 -532 13 0
-535 532 13 0
-535 -532 -13 0
536 16 -14 0
536 -16 14 0
-536 16 14 0
-536 -16 -14 0
-537 532 0
-537 14 0
-537 13 -16 0
-537 -13 16 0
537 -532 13 16 -14 0
537 -532 -13 -16 -14 0
538 535 -11 0
538 -535 11 0
-538 535 11 0
-538 -535 -11 0
539 14 -12 0
539 -14 12 0
-539 14 12 0
-539 -14 -12 0
-540 535 0
-540 12 0
-540 11 -14 0
-540 -11 14 0
540 -535 11 14 -12 0
540 -535 -11 -14 -12 0
541 538 -9 0
541 -538 9 0
-541 538 9 0
-541 -538 -9 0
542 12 -10 0
542 -12 10 0
-542 12 10 0
-542 -12 -10 0
-543 538 0
-543 10 0
-543 9 -12 0
-543 -9 12 0
543 -538 9 12 -10 0
543 -538 -9 -12 -10 0
544 541 -7 0
544 -541 7 0
-544 541 7 0
-544 -541 -7 0
545 10 -8 0
545 -10 8 0
-545 10 8 0
-545 -10 -8 0
-546 541 0
-546 8 0
-546 7 -10 0
-546 -7 10 0
546 -541 7 10 -8 0
546 -541 -7 -10 -8 0
547 544 -5 0
547 -544 5 0
-547 544 5 0
-547 -544 -5 0
548 8 -6 0
548 -8 6 0
-548 8 6 0
-548 -8 -6 0
-549 544 0
-549 6 0
-549 5 -8 0
-549 -5 8 0
549 -544 5 8 -6 0
549 -544 -5 -8 -6 0
550 547 -3 0
550 -547 3 0
-550 547 3 0
-550 -547 -3 0
551 6 -4 0
551 -6 4 0
-551 6 4 0
-551 -6 -4 0
-552 547 0
-552 4 0
-552 3 -6 0
-552 -3 6 0
552 -547 3 6 -4 0
552 -547 -3 -6 -4 0
553 550 -1 0
553 -550 1 0
-553 550 1 0
-553 -550 -1 0
554 4 -2 0
554 -4 2 0
-554 4 2 0
-554 -4 -2 0
-555 550 0
-555 2 0
-555 1 -4 0
-555 -1 4 0
555 -550 1 4 -2 0
555 -550 -1 -4 -2 0
-553 0
-550 0
-554 0
-547 0
-551 0
-544 0
-548 0
-541 0
-545 0
-538 0
-542 0
-535 0
-539 0
-532 0
-536 0
-529 0
-533 0
-526 0
-530 0
-523 0
-527 0
-520 0
-524 0
-517 0
-521 0
-514 0
-518 0
-511 0
-515 0
-508 0
-512 0
-505 0
-509 0
-502 0
-506 0
-499 0
-503 0
-496 0
-500 0
-493 0
-497 0
-490 0
-494 0
-487 0
-491 0
-484 0
-488 0
-481 0
-485 0
-478 0
-482 0
-475 0
-479 0
-472 0
-476 0
-469 0
-473 0
-466 0
-470 0
-463 0
-467 0
-460 0
-464 0
-457 0
-461 0
-454 0
-458 0
-451 0
-455 0
-448 0
-452 0
-445 0
-449 0
-442 0
-446 0
-439 0
-443 0
-436 0
-440 0
-433 0
-437 0
-430 0
-434 0
-427 0
-431 0
-424 0
-428 0
-421 0
-425 0
-418 0
-422 0
-415 0
-419 0
-412 0
-416 0
-409 0
-413 0
-406 0
-410 0
-403 0
-407 0
-400 0
-404 0
-397 0
-401 0
-394 0
-398 0
-391 0
-395 0
-388 0
-392 0
-385 0
-389 0
-382 0
-386 0
-379 0
-383 0
-376 0
-380 0
-373 0
-377 0
-370 0
-374 0
-367 0
-371 0
-364 0
-368 0
-361 0
-365 0
-358 0
-362 0
-355 0
-359 0
-352 0
-356 0
-349 0
-353 0
-346 0
-350 0
-343 0
-347 0
-340 0
-344 0
-337 0
-341 0
-334 0
-338 0
-331 0
-335 0
-328 0
-332 0
-325 0
-329 0
-322 0
-326 0
-319 0
-323 0
-316 0
-320 0
-313 0
-317 0
-310 0
-314 0
-307 0
-311 0
-304 0
-308 0
-301 0
-305 0
-298 0
-302 0
-295 0
-299 0
-292 0
-296 0
-289 0
-293 0
-286 0
-290 0
-283 0
-287 0
-280 0
-284 0
-277 0
-281 0
-274 0
-278 0
-271 0
-275 0
-268 0
-272 0
-265 0
-269 0
-262 0
-266 0
-259 0
-263 0
-256 0
-260 0
-253 0
-257 0
-250 0
-254 0
-247 0
-251 0
-244 0
-248 0
-241 0
-245 0
-238 0
-242 0
-235 0
-239 0
-232 0
-236 0
-229 0
-233 0
-223 0
-230 0
